c uprop, v00.0, 
c reading from data/prog406.c.cnf
c done reading: 0.003374
p cnf 128 508
-36 -54 0
36 54 0
-30 54 0
30 -54 0
36 -48 0
-46 -48 0
-36 46 48 0
-36 -41 46 0
36 -41 -46 0
36 41 46 0
-36 41 -46 0
-37 48 0
-34 -37 0
34 37 -48 0
-32 34 -48 0
-32 -34 48 0
32 34 48 0
32 -34 -48 0
-31 37 0
-28 -31 0
28 31 -37 0
-26 28 -37 0
-26 -28 37 0
26 28 37 0
26 -28 -37 0
31 -52 0
-50 -52 0
-31 50 52 0
-31 50 -56 0
31 -50 -56 0
31 50 56 0
-31 -50 56 0
52 -57 0
-43 -57 0
43 -52 57 0
43 -52 -58 0
-43 52 -58 0
43 52 58 0
-43 -52 58 0
57 -59 0
-39 -59 0
39 -57 59 0
39 -57 -60 0
-39 57 -60 0
39 57 60 0
-39 -57 60 0
54 -61 0
-54 61 0
-46 -54 62 0
46 54 -62 0
46 -62 0
54 -62 0
46 -62 -63 0
54 -62 -63 0
-62 -63 0
-46 62 63 0
-54 62 63 0
46 54 -63 0
-34 -46 64 0
-34 -62 64 0
-46 -62 64 0
34 46 -64 0
34 62 -64 0
46 62 -64 0
34 -64 -65 0
46 -64 -65 0
62 -64 -65 0
-34 64 65 0
-46 64 65 0
-62 64 65 0
-34 -46 -62 65 0
34 46 62 -65 0
-28 -34 66 0
-28 -64 66 0
-34 -64 66 0
28 34 -66 0
28 64 -66 0
34 64 -66 0
28 -66 -67 0
34 -66 -67 0
64 -66 -67 0
-28 66 67 0
-34 66 67 0
-64 66 67 0
-28 -34 -64 67 0
28 34 64 -67 0
-28 -50 68 0
-50 -66 68 0
-28 -66 68 0
28 50 -68 0
50 66 -68 0
28 66 -68 0
-25 50 -68 0
-25 28 -68 0
-25 66 -68 0
25 -50 68 0
25 -28 68 0
25 -66 68 0
25 -28 -50 -66 0
-25 28 50 66 0
24 -43 -50 0
24 -43 -68 0
24 -50 -68 0
-24 43 50 0
-24 43 68 0
-24 50 68 0
-23 -24 43 0
-23 -24 50 0
-23 -24 68 0
23 24 -43 0
23 24 -50 0
23 24 -68 0
23 -43 -50 -68 0
-23 43 50 68 0
22 -39 -43 0
22 -24 -39 0
22 -24 -43 0
-22 39 43 0
-22 24 39 0
-22 24 43 0
-21 -22 39 0
-21 -22 43 0
-21 -22 24 0
21 22 -39 0
21 22 -43 0
21 22 -24 0
21 -24 -39 -43 0
-21 24 39 43 0
39 -53 0
22 -53 0
-22 -39 53 0
-22 -39 -45 0
22 39 -45 0
22 -39 45 0
-22 39 45 0
-33 -61 0
33 61 0
-27 61 0
27 -61 0
33 -49 0
-49 -63 0
-33 49 63 0
-33 -42 63 0
33 -42 -63 0
33 42 63 0
-33 42 -63 0
-38 49 0
-38 -65 0
38 -49 65 0
-20 -49 65 0
-20 49 -65 0
20 49 65 0
20 -49 -65 0
-18 38 0
-18 -67 0
18 -38 67 0
-15 -38 67 0
-15 38 -67 0
15 38 67 0
15 -38 -67 0
-14 18 0
-14 -25 0
14 -18 25 0
-13 -18 25 0
-13 18 -25 0
13 18 25 0
13 -18 -25 0
-12 14 0
-12 -23 0
12 -14 23 0
-11 -14 23 0
-11 14 -23 0
11 14 23 0
11 -14 -23 0
-10 12 0
-10 -21 0
10 -12 21 0
-9 -12 21 0
-9 12 -21 0
9 12 21 0
9 -12 -21 0
-8 10 0
-8 -45 0
8 -10 45 0
-7 -10 45 0
-7 10 -45 0
7 10 45 0
7 -10 -45 0
-6 8 0
-6 -53 0
6 -8 53 0
-5 -8 53 0
-5 8 -53 0
5 8 53 0
5 -8 -53 0
-4 -19 0
-4 -16 0
4 16 19 0
-3 16 19 0
-3 -16 -19 0
3 16 -19 0
3 -16 19 0
-2 4 0
-2 -69 0
2 -4 69 0
-4 69 -70 0
4 -69 -70 0
4 69 70 0
-4 -69 70 0
2 -71 0
-71 -72 0
-2 71 72 0
-2 72 -74 0
2 -72 -74 0
2 72 74 0
-2 -72 74 0
71 -75 0
-75 -76 0
-71 75 76 0
-71 76 -77 0
71 -76 -77 0
71 76 77 0
-71 -76 77 0
75 -78 0
-78 -79 0
-75 78 79 0
-75 79 -81 0
75 -79 -81 0
75 79 81 0
-75 -79 81 0
78 -82 0
-82 -83 0
-78 82 83 0
-78 83 -84 0
78 -83 -84 0
78 83 84 0
-78 -83 84 0
82 -85 0
-85 -86 0
-82 85 86 0
-82 86 -88 0
82 -86 -88 0
82 86 88 0
-82 -86 88 0
76 -89 0
19 -89 0
-19 -76 89 0
-19 -76 -90 0
19 76 -90 0
19 -76 90 0
-19 76 90 0
-16 -79 91 0
-79 -89 91 0
-16 -89 91 0
16 79 -91 0
79 89 -91 0
16 89 -91 0
79 -91 -92 0
16 -91 -92 0
89 -91 -92 0
-79 91 92 0
-16 91 92 0
-89 91 92 0
-16 -79 -89 92 0
16 79 89 -92 0
-69 -83 93 0
-83 -91 93 0
-69 -91 93 0
69 83 -93 0
83 91 -93 0
69 91 -93 0
83 -93 -94 0
69 -93 -94 0
91 -93 -94 0
-83 93 94 0
-69 93 94 0
-91 93 94 0
-69 -83 -91 94 0
69 83 91 -94 0
-72 -86 95 0
-86 -93 95 0
-72 -93 95 0
72 86 -95 0
86 93 -95 0
72 93 -95 0
86 -95 -96 0
72 -95 -96 0
93 -95 -96 0
-86 95 96 0
-72 95 96 0
-93 95 96 0
-72 -86 -93 96 0
72 86 93 -96 0
76 -97 0
95 -97 0
-76 -95 97 0
-76 -95 -98 0
76 95 -98 0
-76 95 98 0
76 -95 98 0
79 -99 0
97 -99 0
-79 -97 99 0
-79 -97 -100 0
79 97 -100 0
-79 97 100 0
79 -97 100 0
83 -101 0
99 -101 0
-83 -99 101 0
-83 -99 -102 0
83 99 -102 0
-83 99 102 0
83 -99 102 0
86 -103 0
101 -103 0
-86 -101 103 0
-86 -101 -104 0
86 101 -104 0
-86 101 104 0
86 -101 104 0
-19 -105 0
-16 -105 0
16 19 105 0
16 19 -106 0
-16 -19 -106 0
16 -19 106 0
-16 19 106 0
105 -107 0
-69 -107 0
69 -105 107 0
69 -105 -108 0
-69 105 -108 0
69 105 108 0
-69 -105 108 0
107 -109 0
-72 -109 0
72 -107 109 0
72 -107 -110 0
-72 107 -110 0
72 107 110 0
-72 -107 110 0
109 -111 0
-90 -111 0
90 -109 111 0
90 -109 -112 0
-90 109 -112 0
90 109 112 0
-90 -109 112 0
111 -113 0
-92 -113 0
92 -111 113 0
92 -111 -114 0
-92 111 -114 0
92 111 114 0
-92 -111 114 0
113 -115 0
-94 -115 0
94 -113 115 0
94 -113 -116 0
-94 113 -116 0
94 113 116 0
-94 -113 116 0
115 -117 0
-96 -117 0
96 -115 117 0
96 -115 -118 0
-96 115 -118 0
96 115 118 0
-96 -115 118 0
117 -119 0
-98 -119 0
98 -117 119 0
98 -117 -120 0
-98 117 -120 0
98 117 120 0
-98 -117 120 0
119 -121 0
-100 -121 0
100 -119 121 0
100 -119 -122 0
-100 119 -122 0
100 119 122 0
-100 -119 122 0
-55 121 0
-55 -102 0
55 102 -121 0
-47 102 -121 0
-47 -102 121 0
47 102 121 0
47 -102 -121 0
-35 55 0
-35 -104 0
35 -55 104 0
-29 -55 104 0
-29 55 -104 0
29 55 104 0
29 -55 -104 0
35 -51 0
-51 -103 0
-35 51 103 0
-35 -44 103 0
35 -44 -103 0
35 44 103 0
-35 44 -103 0
-40 61 0
19 -40 0
-19 40 -61 0
-19 -61 0
19 61 0
-16 17 -63 0
17 -40 -63 0
-16 17 -40 0
16 -17 63 0
-17 40 63 0
16 -17 40 0
17 -63 0
-16 17 0
17 -40 0
-16 -40 -63 0
-65 -69 73 0
-17 -65 73 0
-17 -69 73 0
65 69 -73 0
17 65 -73 0
17 69 -73 0
-65 73 0
-69 73 0
-17 73 0
-17 -65 -69 0
-67 -72 80 0
-67 -73 80 0
-72 -73 80 0
67 72 -80 0
67 73 -80 0
72 73 -80 0
-67 80 0
-72 80 0
-73 80 0
-67 -72 -73 0
-25 87 -90 0
-25 -80 87 0
-80 87 -90 0
25 -87 90 0
25 80 -87 0
80 -87 90 0
25 -87 0
-87 90 0
80 -87 0
25 80 90 0
-23 -92 123 0
-23 -87 123 0
-87 -92 123 0
23 92 -123 0
23 87 -123 0
87 92 -123 0
-23 123 0
-92 123 0
-87 123 0
-23 -87 -92 0
-21 -94 124 0
-21 -123 124 0
-94 -123 124 0
21 94 -124 0
21 123 -124 0
94 123 -124 0
21 -124 0
94 -124 0
123 -124 0
21 94 123 0
-45 -96 125 0
-45 -124 125 0
-96 -124 125 0
45 96 -125 0
45 124 -125 0
96 124 -125 0
-45 125 0
-96 125 0
-124 125 0
-45 -96 -124 0
-53 -98 126 0
-53 -125 126 0
-98 -125 126 0
53 98 -126 0
53 125 -126 0
98 125 -126 0
-53 126 0
-98 126 0
-125 126 0
-53 -98 -125 0
100 -127 0
126 -127 0
-100 -126 127 0
-100 126 0
100 -126 0
102 -128 0
127 -128 0
-102 -127 128 0
-102 127 0
102 -127 0
-1 104 0
-1 128 0
1 -104 -128 0
-104 128 0
104 -128 0
-1 -103 0
1 -103 0
-1 103 0
